param n := 2;

param m := 2;

param K := 20;

param a :=
1 	 0.098347
2 	 0.421108
;
 param A :=
[1, *, *]:  1	2	:=
1	0.915779	0.383754	
2	0.066331	-0.368969	

[2, *, *]:  1	2	:=
1	0.373002	-0.963423	
2	0.669251	0.500289	
;